NAME          
ROWS
 N  OBJ
 L  c1
 L  c2
 L  c3
 L  c4
COLUMNS
    MARKER    'MARKER'                 'INTORG'
    x[1]      c1        561
    x[1]      c2        345
    x[1]      c3        197
    x[1]      c4        621
    x[1]      OBJ       -612
    x[2]      c1        575
    x[2]      c2        972
    x[2]      c3        517
    x[2]      c4        528
    x[2]      OBJ       -507
    x[3]      c1        205
    x[3]      c2        222
    x[3]      c3        345
    x[3]      c4        458
    x[3]      OBJ       -915
    x[4]      c1        764
    x[4]      c2        44
    x[4]      c3        850
    x[4]      c4        545
    x[4]      OBJ       -646
    x[5]      c1        957
    x[5]      c2        930
    x[5]      c3        655
    x[5]      c4        35
    x[5]      OBJ       -976
    x[6]      c1        769
    x[6]      c2        380
    x[6]      c3        732
    x[6]      c4        440
    x[6]      OBJ       -698
    x[7]      c1        381
    x[7]      c2        392
    x[7]      c3        744
    x[7]      c4        829
    x[7]      OBJ       -821
    x[8]      c1        863
    x[8]      c2        478
    x[8]      c3        474
    x[8]      c4        217
    x[8]      OBJ       -216
    x[9]      c1        2
    x[9]      c2        384
    x[9]      c3        987
    x[9]      c4        447
    x[9]      OBJ       -288
    x[10]     c1        280
    x[10]     c2        489
    x[10]     c3        84
    x[10]     c4        83
    x[10]     OBJ       -154
    x[11]     c1        75
    x[11]     c2        399
    x[11]     c3        442
    x[11]     c4        584
    x[11]     OBJ       -378
    x[12]     c1        606
    x[12]     c2        869
    x[12]     c3        739
    x[12]     c4        46
    x[12]     OBJ       -265
    x[13]     c1        118
    x[13]     c2        791
    x[13]     c3        972
    x[13]     c4        638
    x[13]     OBJ       -368
    x[14]     c1        34
    x[14]     c2        520
    x[14]     c3        188
    x[14]     c4        602
    x[14]     OBJ       -742
    x[15]     c1        664
    x[15]     c2        937
    x[15]     c3        506
    x[15]     c4        487
    x[15]     OBJ       -737
    x[16]     c1        341
    x[16]     c2        585
    x[16]     c3        902
    x[16]     c4        755
    x[16]     OBJ       -323
    x[17]     c1        919
    x[17]     c2        577
    x[17]     c3        505
    x[17]     c4        15
    x[17]     OBJ       -795
    x[18]     c1        425
    x[18]     c2        769
    x[18]     c3        245
    x[18]     c4        683
    x[18]     OBJ       -924
    x[19]     c1        710
    x[19]     c2        55
    x[19]     c3        740
    x[19]     c4        671
    x[19]     OBJ       -211
    x[20]     c1        626
    x[20]     c2        333
    x[20]     c3        295
    x[20]     c4        775
    x[20]     OBJ       -54
    x[21]     c1        85
    x[21]     c2        713
    x[21]     c3        480
    x[21]     c4        812
    x[21]     OBJ       -475
    x[22]     c1        237
    x[22]     c2        4
    x[22]     c3        241
    x[22]     c4        190
    x[22]     OBJ       -998
    x[23]     c1        828
    x[23]     c2        753
    x[23]     c3        546
    x[23]     c4        361
    x[23]     OBJ       -577
    x[24]     c1        794
    x[24]     c2        788
    x[24]     c3        478
    x[24]     c4        455
    x[24]     OBJ       -866
    x[25]     c1        98
    x[25]     c2        112
    x[25]     c3        9
    x[25]     c4        380
    x[25]     OBJ       -180
    x[26]     c1        664
    x[26]     c2        81
    x[26]     c3        179
    x[26]     c4        58
    x[26]     OBJ       -968
    x[27]     c1        694
    x[27]     c2        294
    x[27]     c3        552
    x[27]     c4        947
    x[27]     OBJ       -678
    x[28]     c1        561
    x[28]     c2        385
    x[28]     c3        122
    x[28]     c4        639
    x[28]     OBJ       -753
    x[29]     c1        787
    x[29]     c2        414
    x[29]     c3        448
    x[29]     c4        187
    x[29]     OBJ       -154
    x[30]     c1        153
    x[30]     c2        18
    x[30]     c3        354
    x[30]     c4        58
    x[30]     OBJ       -89
    x[31]     c1        388
    x[31]     c2        470
    x[31]     c3        324
    x[31]     c4        896
    x[31]     OBJ       -696
    x[32]     c1        457
    x[32]     c2        287
    x[32]     c3        962
    x[32]     c4        521
    x[32]     OBJ       -308
    x[33]     c1        481
    x[33]     c2        417
    x[33]     c3        992
    x[33]     c4        582
    x[33]     OBJ       -142
    x[34]     c1        905
    x[34]     c2        152
    x[34]     c3        27
    x[34]     c4        61
    x[34]     OBJ       -144
    x[35]     c1        327
    x[35]     c2        103
    x[35]     c3        204
    x[35]     c4        590
    x[35]     OBJ       -428
    x[36]     c1        862
    x[36]     c2        326
    x[36]     c3        648
    x[36]     c4        383
    x[36]     OBJ       -463
    x[37]     c1        170
    x[37]     c2        727
    x[37]     c3        223
    x[37]     c4        377
    x[37]     OBJ       -983
    x[38]     c1        963
    x[38]     c2        672
    x[38]     c3        665
    x[38]     c4        221
    x[38]     OBJ       -211
    x[39]     c1        430
    x[39]     c2        223
    x[39]     c3        550
    x[39]     c4        698
    x[39]     OBJ       -341
    x[40]     c1        99
    x[40]     c2        853
    x[40]     c3        174
    x[40]     c4        490
    x[40]     OBJ       -347
RHS
    rhs       c1        9929
    rhs       c2        9132
    rhs       c3        9648
    rhs       c4        9182
RANGES
BOUNDS
 BV bounds    x[1]
 BV bounds    x[2]
 BV bounds    x[3]
 BV bounds    x[4]
 BV bounds    x[5]
 BV bounds    x[6]
 BV bounds    x[7]
 BV bounds    x[8]
 BV bounds    x[9]
 BV bounds    x[10]
 BV bounds    x[11]
 BV bounds    x[12]
 BV bounds    x[13]
 BV bounds    x[14]
 BV bounds    x[15]
 BV bounds    x[16]
 BV bounds    x[17]
 BV bounds    x[18]
 BV bounds    x[19]
 BV bounds    x[20]
 BV bounds    x[21]
 BV bounds    x[22]
 BV bounds    x[23]
 BV bounds    x[24]
 BV bounds    x[25]
 BV bounds    x[26]
 BV bounds    x[27]
 BV bounds    x[28]
 BV bounds    x[29]
 BV bounds    x[30]
 BV bounds    x[31]
 BV bounds    x[32]
 BV bounds    x[33]
 BV bounds    x[34]
 BV bounds    x[35]
 BV bounds    x[36]
 BV bounds    x[37]
 BV bounds    x[38]
 BV bounds    x[39]
 BV bounds    x[40]
ENDATA
